Problem:    ex2b
Rows:       9
Columns:    13 (1 integer, 1 binary)
Non-zeros:  39
Status:     INTEGER OPTIMAL
Objective:  costTotal = 995.1011011 (MINimum)

   No.   Row name        Activity     Lower bound   Upper bound
------ ------------    ------------- ------------- -------------
     1 costTotal             995.101                             
     2 capMax[a]                  40                          40 
     3 capMax[b]              45.045                          50 
     4 capMax[c]             35.0751                          40 
     5 demMin[1]                  45            45             = 
     6 demMin[2]                  20            20             = 
     7 demMin[3]                  30            30             = 
     8 demMin[4]                  25            25             = 
     9 rCentralcCiutat2
                            -29.9499                          -0 

   No. Column name       Activity     Lower bound   Upper bound
------ ------------    ------------- ------------- -------------
     1 x[a,1]                      0             0               
     2 x[a,2]                9.96997             0               
     3 x[a,3]                  30.03             0               
     4 x[a,4]                      0             0               
     5 x[b,1]                 45.045             0               
     6 x[b,2]                      0             0               
     7 x[b,3]                      0             0               
     8 x[b,4]                      0             0               
     9 x[c,1]                      0             0               
    10 x[c,2]                10.0501             0               
    11 x[c,3]                      0             0               
    12 x[c,4]                 25.025             0               
    13 costFix      *              1             0             1 

Integer feasibility conditions:

KKT.PE: max.abs.err = 0.00e+00 on row 0
        max.rel.err = 0.00e+00 on row 0
        High quality

KKT.PB: max.abs.err = 3.55e-15 on row 7
        max.rel.err = 1.15e-16 on row 7
        High quality

End of output
